
  22   10
  10   10   10   10   10   10   10   10   10   10

   0   0   0   0   0   0   0   0   0   0   0  12 2 3 4 5 6 7 16 17 18 19 20 21 
   9  10  10  10  10  10  10  10  10  10  10   5 15 14 10 9 8 
   7  10  10  10  10  10  10  10  10  10  10   3 13 12 11 
  10  10  10  10  10  10  10  10  10  10  10   2 12 11 
   2  10  10  10  10  10  10  10  10  10  10   1 10 
   2  10  10  10  10  10  10  10  10  10  10   1 9 
   7  10  10  10  10  10  10  10  10  10  10   1 8 
   7  10  10  10  10  10  10  10  10  10  10   1 22
  10  10  10  10  10  10  10  10  10  10  10   1 22
   7  10  10  10  10  10  10  10  10  10  10   1 22
   7  10  10  10  10  10  10  10  10  10  10   1 22
   5  10  10  10  10  10  10  10  10  10  10   1 22
  10  10  10  10  10  10  10  10  10  10  10   1 22
   5  10  10  10  10  10  10  10  10  10  10   1 22
   4  10  10  10  10  10  10  10  10  10  10   1 22
  10  10  10  10  10  10  10  10  10  10  10   1 22
   4  10  10  10  10  10  10  10  10  10  10   1 22
   3  10  10  10  10  10  10  10  10  10  10   1 22
   7  10  10  10  10  10  10  10  10  10  10   1 22
   5  10  10  10  10  10  10  10  10  10  10   1 22
   1  10  10  10  10  10  10  10  10  10  10   1 22
   0   0   0   0   0   0   0   0   0   0   0   0 
